\ Model subroutine
\ LP format - for model browsing. Use MPS format to capture full model detail.
Maximize
 [ 2 x0 ^2 + 2 x1 ^2 + 2 x2 ^2 + 2 x3 ^2 + 2 x4 ^2 + 2 x5 ^2 + 2 x6 ^2
   + 2 x7 ^2 + 2 x8 ^2 + 2 x9 ^2 + 2 x10 ^2 + 2 x11 ^2 + 2 x12 ^2
   + 2 x13 ^2 + 2 x14 ^2 + 2 x15 ^2 + 2 x16 ^2 + 2 x17 ^2 + 2 x18 ^2
   + 2 x19 ^2 + 2 x20 ^2 + 2 x21 ^2 + 2 x22 ^2 ] / 2 
Subject To
 D0: = 0
 D1: = 0
 D2: x15 = 0
 D3: x13 + x15 = 0
 D4: = 0
Bounds
 -100 <= x0 <= 100
 -100 <= x1 <= 100
 -100 <= x2 <= 100
 -100 <= x3 <= 100
 -100 <= x4 <= 100
 -100 <= x5 <= 100
 -100 <= x6 <= 100
 -100 <= x7 <= 100
 -100 <= x8 <= 100
 -100 <= x9 <= 100
 -100 <= x10 <= 100
 -100 <= x11 <= 100
 -100 <= x12 <= 100
 -100 <= x13 <= 100
 -100 <= x14 <= 100
 -100 <= x15 <= 100
 -100 <= x16 <= 100
 -100 <= x17 <= 100
 -100 <= x18 <= 100
 -100 <= x19 <= 100
 -100 <= x20 <= 100
 -100 <= x21 <= 100
 -100 <= x22 <= 100
End
